&CONTROL
calculation       = 'scf'
restart_mode      = 'from_scratch'
pseudo_dir        = './'
outdir            = './'
prefix            = 'calc'
wf_collect        = .TRUE.
/
&SYSTEM
ibrav             = 0
nat               = 5
ntyp              = 2
ecutwfc           = 40.0
nbnd              = 8
input_dft         = 'PBE'
nosym             = .TRUE.
noinv             = .TRUE.
/
&ELECTRONS
diago_full_acc = .TRUE.
conv_thr       = 1.d-8
/
ATOMIC_SPECIES
C 12.011 C_ONCV_PBE-1.0.upf
H 1.008 H_ONCV_PBE-1.0.upf
ATOMIC_POSITIONS {bohr}
C 0.0 0.0 0.0
H 1.185992116575257 -1.185803143962673 1.185992116575257
H -1.185992116575257 1.185992116575257 1.185992116575257
H -1.185992116575257 -1.185992116575257 -1.185992116575257
H 1.185992116575257 1.185992116575257 -1.185992116575257
K_POINTS {gamma}
CELL_PARAMETERS {bohr}
25.0 0.0 0.0
0.0 25.0 0.0
0.0 0.0 25.0
